p cnf 100 240
89 -47 83 0
19 -52 75 0
-73 38 -14 0
-63 60 -11 0
51 1 -100 0
16 35 26 0
18 89 -94 0
-84 -21 54 0
-29 45 44 0
-10 56 -52 0
-1 -25 57 0
-46 -100 -33 0
-94 82 -20 0
-44 99 -84 0
89 32 41 0
87 5 -41 0
98 85 28 0
-98 -9 -8 0
64 -56 19 0
54 -42 -44 0
69 -100 -75 0
-50 97 -73 0
41 -80 97 0
69 -91 85 0
-69 -96 -90 0
12 61 -62 0
-4 13 -26 0
100 -32 -90 0
50 43 -45 0
31 100 -69 0
-6 -19 -85 0
-94 17 -79 0
-97 -90 -20 0
46 41 -2 0
-71 -41 40 0
-31 2 -32 0
-83 17 -92 0
-34 68 -38 0
53 -59 -79 0
91 -15 90 0
31 17 -83 0
98 40 31 0
-82 -51 -66 0
58 -19 -1 0
-87 75 37 0
-62 -33 80 0
-69 -5 25 0
12 -65 -50 0
33 69 31 0
21 88 -93 0
62 72 -31 0
-81 -72 58 0
-3 60 -7 0
2 10 58 0
-28 -1 -88 0
42 -1 51 0
70 -68 -60 0
98 -48 -83 0
1 -66 84 0
73 -93 -99 0
47 -29 -9 0
-56 48 34 0
-61 48 -57 0
3 -42 -50 0
-95 39 64 0
92 -37 -99 0
30 98 -2 0
91 -20 93 0
-6 -17 25 0
-52 -76 -20 0
-74 -45 -32 0
-9 -44 -77 0
-16 7 40 0
2 72 54 0
-86 -34 51 0
-65 80 -15 0
-99 2 8 0
86 91 94 0
-17 -65 48 0
7 50 -8 0
-47 -20 40 0
96 -25 100 0
-8 71 42 0
35 -94 -30 0
-90 -34 -86 0
71 50 -85 0
-82 20 -39 0
-50 -2 58 0
-61 72 -11 0
84 53 -27 0
-66 40 -28 0
20 -29 -24 0
-44 89 1 0
73 28 -50 0
-20 -71 -18 0
6 33 -41 0
93 -10 46 0
-73 -5 77 0
51 -35 -44 0
-28 93 -24 0
55 18 5 0
73 74 -42 0
30 -48 9 0
-47 -72 84 0
39 91 -97 0
-57 35 -31 0
-92 -75 -67 0
26 63 28 0
-12 -89 6 0
72 -3 -12 0
-47 -80 -30 0
40 12 74 0
24 43 11 0
-29 46 -2 0
-93 -44 -53 0
57 -35 51 0
-55 -58 84 0
-18 50 14 0
51 -92 -86 0
88 85 77 0
9 -86 22 0
59 -58 -87 0
73 33 41 0
82 67 -42 0
17 -97 -44 0
-19 -78 -52 0
-71 -19 -82 0
80 -89 77 0
-54 7 -50 0
73 10 57 0
-84 -15 -39 0
-61 -37 4 0
-78 -74 -71 0
90 66 38 0
48 57 92 0
-5 68 60 0
-76 -52 7 0
-92 29 -79 0
7 15 -57 0
-82 -78 -6 0
32 80 -26 0
11 -45 59 0
5 -6 48 0
-13 -7 -66 0
37 25 -64 0
25 95 -10 0
-1 71 -54 0
52 -76 5 0
-55 58 9 0
-77 -3 -1 0
32 72 -8 0
-71 -38 -66 0
-27 -23 -5 0
11 21 88 0
81 -24 60 0
9 -60 -24 0
-88 -7 24 0
30 40 84 0
82 40 13 0
20 60 76 0
-45 10 -86 0
59 36 -49 0
34 -3 -17 0
-38 -19 -26 0
-73 12 66 0
64 -31 -15 0
52 -53 -8 0
-90 -92 -17 0
39 56 -65 0
34 -5 -61 0
87 -33 -80 0
-69 -31 61 0
5 87 -23 0
-44 -19 26 0
16 9 -10 0
10 70 86 0
64 -94 -72 0
93 22 37 0
91 96 -94 0
-32 16 -22 0
74 83 19 0
60 9 97 0
66 3 -77 0
9 -13 -72 0
-4 -16 22 0
5 44 -72 0
-66 2 56 0
94 -40 60 0
-27 96 -79 0
-46 88 -85 0
20 -77 -26 0
65 -63 -15 0
3 -94 -28 0
45 61 -11 0
3 26 -54 0
32 -31 -33 0
-95 58 80 0
-99 -12 -30 0
-41 79 82 0
75 -42 -83 0
x -1 2 -3 4 7 -10 -11 14 15 -17 -20 21 -23 -29 31 -32 -33 -35 -38 -39 42 46 -47 -49 -50 -53 -54 57 -58 -61 64 -66 67 71 73 -74 75 -77 81 -83 -85 86 87 -89 90 96 98 99 100 0
x 1 2 -5 7 -10 -12 -13 14 16 20 -22 -26 29 33 34 35 -38 42 43 -45 46 47 -49 55 57 -58 61 62 63 64 -65 66 67 69 72 -73 -80 -82 86 -87 89 90 -93 96 97 98 -100 0
x 1 -2 6 -8 10 13 15 -16 -17 18 -23 -24 -25 27 29 -31 -32 -34 -37 -40 41 44 48 49 51 -53 -54 -55 -56 57 -64 -65 66 -68 71 -72 -76 77 79 -80 -83 -84 85 -86 87 88 89 -92 -93 94 95 96 97 100 0
x -1 -2 -5 -6 -7 10 -11 13 -16 18 -19 20 23 29 31 32 -37 -38 39 40 42 -45 -50 -57 58 -59 61 -62 63 66 69 72 -73 -74 -76 77 -79 -81 -82 -83 -85 -86 88 -93 94 -95 99 0
x -1 2 -8 10 -11 18 20 22 -23 -24 25 -26 29 31 32 38 39 -43 45 46 48 -49 50 51 -54 -58 60 -62 -64 65 66 70 -72 -74 78 -83 85 88 -90 91 -93 -95 96 97 -98 99 -100 0
x -1 -3 4 7 9 11 13 15 -16 -18 21 24 26 -30 31 32 -36 37 -38 39 -42 -44 -45 46 -47 49 50 -51 -55 56 -57 58 61 -62 64 -67 -69 72 73 74 76 77 -78 79 -82 -84 -86 -87 -88 -89 -90 -91 93 -100 0
x 2 -6 -12 -14 -15 -18 -19 -20 23 25 -29 32 -33 36 39 -40 -41 43 44 45 51 52 53 -54 57 58 -59 60 -62 -63 65 67 -69 -70 71 -73 74 -75 -80 81 82 -83 86 87 88 90 -91 95 96 99 0
x 1 4 -5 7 8 9 10 -11 12 13 14 -16 -17 -18 -20 21 -23 -24 25 28 29 31 -33 34 37 -39 -42 -47 50 -55 56 57 -58 59 -61 62 67 73 -74 76 -77 79 -80 -81 -82 -83 85 -88 89 90 -91 -92 93 -95 -97 -99 -100 0
x 7 -11 12 13 -15 -16 17 -18 19 20 -22 -23 25 -26 27 -28 29 -33 34 -36 -37 38 39 40 -42 -45 47 -49 51 -53 54 -57 60 -61 63 64 65 -66 70 71 -72 -74 -78 83 85 88 89 92 94 97 99 0
x -1 3 4 -5 -12 13 14 -18 19 -20 -21 22 -25 -27 -28 29 -30 32 36 -37 43 -44 -46 -48 -49 51 57 -58 -61 62 63 64 -65 66 -67 69 -72 73 -76 77 -79 80 -81 82 -83 84 86 89 92 -94 -95 -96 98 100 0
x -2 -4 -8 9 -10 -11 12 14 -15 -17 -19 -20 -23 24 -25 -26 27 -28 -29 31 32 33 -35 -36 37 38 39 40 -41 42 -43 -44 -46 47 48 -49 -53 -57 59 64 66 -68 69 76 77 -84 -85 89 -90 -91 -92 -93 -94 97 -99 0
x -1 -2 -3 4 6 7 -8 -9 -10 -12 13 15 -17 18 21 22 23 24 -25 -28 29 30 31 41 -43 45 46 48 50 52 -54 55 58 59 60 -61 62 63 66 -67 69 70 -83 85 -88 90 -94 -95 -100 0
x -1 7 -9 -12 15 -17 -18 -19 24 -26 27 28 -29 30 31 -33 -35 -37 -38 -42 43 44 -47 50 56 -58 60 61 62 -66 -69 -74 76 -78 80 82 84 85 -87 -88 -89 -90 91 92 94 95 -96 -97 -99 -100 0
x 3 -6 7 -10 11 -13 15 16 19 -20 -22 -25 26 -30 33 -34 35 38 39 42 -43 -47 -51 -54 57 -59 -60 -61 62 -63 66 69 71 -72 -75 76 78 79 -82 83 84 86 92 97 -99 -100 0
x 5 -6 9 -15 -16 18 20 21 23 24 -25 -26 27 30 -31 32 -36 38 -39 -44 -46 47 48 -50 54 -55 56 -57 -60 -64 -69 -72 79 84 -85 87 -88 97 99 100 0
x -3 -4 -5 -6 -8 -9 10 -20 22 23 24 30 -35 36 -37 39 40 41 45 48 52 55 -56 57 -58 -59 61 -62 -63 64 67 -70 74 -75 -76 78 -80 81 82 85 86 87 90 91 -93 -96 -97 100 0
x -1 -5 6 7 9 10 13 14 -16 19 -21 23 -25 -27 32 -33 -38 39 44 -51 -52 -56 58 63 66 -68 70 -71 -73 74 -76 -78 -79 84 -85 88 -90 91 -93 -95 97 -100 0
x -1 3 5 -7 9 13 14 20 22 24 -25 -26 -27 -29 -31 32 33 -35 37 38 -39 -41 -42 -43 -45 46 47 -48 49 -50 -52 54 -58 -60 -63 64 -65 67 68 -74 -75 76 -77 -78 -79 -81 -87 -88 90 -91 92 -94 -96 97 -99 -100 0
x 2 -4 -5 9 -10 13 15 -21 22 -24 28 29 30 -31 -32 34 -35 -36 42 43 47 -48 50 -52 54 -58 -59 60 62 63 64 65 -70 73 -74 77 -79 84 85 -86 88 -89 -90 -92 94 95 96 -97 -98 99 100 0
x -1 -2 4 5 6 -7 11 12 13 -15 16 -20 -25 -26 27 -30 -32 -33 -35 36 -41 42 -43 -45 49 50 -51 -52 -53 -55 -56 57 58 -61 62 -63 -65 -66 -67 69 -74 -77 79 85 86 -87 -88 -90 -92 -96 -97 99 100 0
x 1 -3 5 -6 -10 -14 17 22 -24 26 -27 29 -30 32 35 37 39 40 -41 42 -43 -49 54 -55 58 -61 -62 -64 -65 -67 69 70 -71 -72 -74 -75 77 -78 79 -80 -82 -88 89 -90 92 94 95 -98 99 0
x -2 -4 -9 -11 -13 -14 21 22 24 -27 28 -30 -33 -36 38 -43 50 51 -52 53 -55 56 -59 -60 62 -64 65 68 70 71 -72 -75 -76 78 -80 83 -87 -88 93 -96 97 100 0
x -2 3 5 -7 12 13 15 -16 -17 19 20 21 23 25 27 28 29 31 -32 -33 -34 35 -36 -37 39 41 -43 46 -49 53 -54 55 -62 -63 65 66 68 -73 -74 75 -76 79 83 85 86 -88 -90 -91 -93 95 -96 -97 -99 -100 0
x -2 3 4 -5 -6 -8 10 11 16 -19 -20 -21 -25 -28 30 -31 32 33 -36 39 -40 43 48 -49 -51 54 -57 -58 60 61 63 -64 -65 69 -73 -77 78 -79 80 82 -84 86 -87 88 89 -90 91 93 95 96 98 0
x -1 -3 -7 8 9 10 -14 15 18 20 22 23 -24 26 30 31 32 34 -37 38 -41 43 44 -45 46 -49 52 53 57 -58 60 -62 -63 -66 -68 -69 -70 71 76 -77 78 79 80 -85 87 89 -92 93 95 -97 98 0
x 1 2 3 -5 -6 -8 -11 -12 13 -14 -18 19 -21 22 -25 -26 29 -31 32 -33 -34 -35 37 38 41 42 -43 46 48 -50 59 -60 61 66 70 71 -73 77 78 79 -81 82 -84 85 86 -90 93 94 -95 -96 -97 98 -100 0
x -2 -6 9 -11 -13 -15 -17 -18 -20 -23 24 25 -27 -28 -29 -30 31 -34 -35 36 38 -39 -40 -43 44 -48 -51 -52 53 57 58 59 60 61 -63 64 -65 69 71 75 -76 -77 -81 82 -84 -85 -88 90 91 92 -94 97 98 -100 0
x -5 -6 -8 11 12 15 -17 18 -19 -20 23 -27 -29 -31 33 -38 -39 41 -42 44 45 48 49 -51 -52 54 55 59 60 -61 -62 63 66 -67 68 -70 71 73 75 76 -80 -81 86 -89 -91 -92 96 -97 98 99 -100 0
x 1 -2 -6 7 -10 11 -12 16 17 -19 -21 22 -23 -24 -25 -26 29 30 31 33 -34 -35 38 -40 43 44 -47 48 49 -58 -59 61 70 -71 -73 75 -77 78 -83 87 -92 95 98 -99 100 0
x -1 5 -6 -7 9 12 -15 17 -19 20 -22 -24 25 26 -27 -29 31 -36 -39 -40 41 42 44 -46 49 -52 56 57 58 59 -60 61 -62 65 66 -67 68 -70 73 -75 76 -77 -81 82 -83 -84 -87 88 -89 -90 -91 92 -93 94 -96 -98 -100 0
x -1 3 -4 -5 7 -8 -9 -11 12 -13 16 17 18 19 21 -22 30 31 32 34 -36 -38 -40 42 -49 -51 -55 -56 -57 63 65 -68 -75 -82 83 -85 89 -90 -93 -95 96 97 -99 -100 0
x -3 4 5 6 9 -10 -12 -13 -18 19 20 22 -24 -25 -28 31 -36 -37 -38 39 -40 42 44 45 46 -49 -50 51 52 54 -55 -57 59 61 -62 64 -65 66 69 -71 74 79 81 82 -87 88 90 91 -92 -93 94 -96 -97 98 -100 0
x -3 4 -5 -6 7 8 11 -13 15 16 17 19 -20 -23 -25 -26 27 -28 30 -32 34 35 -36 37 38 -39 40 45 50 -51 53 54 56 58 -60 -61 -62 -63 65 67 72 75 -77 -82 -84 -85 86 -87 -88 -89 -93 94 96 97 100 0
x -1 2 3 4 -5 9 -10 -11 -19 -22 -23 -24 27 -29 33 34 35 36 -37 39 -40 41 44 -46 47 50 56 -59 -61 -63 -67 68 -71 -72 -74 81 -82 -83 84 -86 -91 -93 94 95 97 -98 -99 100 0
x -1 -9 -11 -12 13 -14 15 17 -18 25 26 -27 -28 -29 -30 32 -34 35 36 37 -38 -40 -45 47 -48 49 -50 51 55 -57 -59 -61 -62 63 -65 68 -70 -71 72 -73 74 -76 77 -78 -79 82 83 -84 -88 -89 -90 92 -94 -96 -98 99 0
x 2 6 8 -9 15 16 -18 22 -24 25 -30 32 34 -36 37 38 42 45 -49 -51 52 54 -55 58 60 -67 68 70 73 -74 75 -78 -80 -81 82 83 84 85 -86 -88 -92 -96 -98 0
x -1 2 4 -5 -8 9 11 -12 13 -14 15 17 19 -20 22 -23 -25 26 27 29 33 37 38 39 -40 -42 -45 -46 51 -53 -54 -57 58 60 -61 64 -65 -67 68 -69 -70 -73 -74 77 79 -81 86 -87 -92 95 -96 -98 0
x -2 14 15 -18 -19 -20 24 -25 -26 -29 32 -34 -35 36 -40 -41 -42 -45 -48 -51 53 56 58 -59 64 -65 -67 70 -72 -74 75 -78 79 -80 81 -88 89 -90 91 -92 -93 -95 97 -98 0
x 2 7 8 9 10 11 -12 18 -19 -20 -21 -23 24 25 -27 30 32 -34 -38 40 41 43 -44 51 52 54 -55 -56 -57 -58 61 -62 -64 65 -66 -69 -71 -73 74 -75 -76 77 78 81 -82 -85 -86 -87 90 -94 99 0
x -2 4 -5 -6 -7 9 -16 21 23 24 25 -26 27 -28 -33 34 -36 -38 39 41 45 52 -54 -55 56 59 60 61 -62 -65 -66 -70 -71 -74 77 -78 -80 -81 82 83 -84 -86 87 88 -89 90 -93 -94 96 99 -100 0
